
Gurobi 10.0.1 (linux64) logging started Fri Apr  4 10:12:38 2025

Set parameter LogFile to value "Results/OneScenarioExperiments/option3_with_equality_constraints_non_market_storage_forbidden.log"
Set parameter TimeLimit to value 84600
Warning: linear constraint 797496 and linear constraint 797497 have the same name "storage_equal[1,2,1]"
Warning: default constraint names used to write mps file
Gurobi Optimizer version 10.0.1 build v10.0.1rc0 (linux64)

CPU model: AMD EPYC 9654 96-Core Processor, instruction set [SSE2|AVX|AVX2|AVX512]
Thread count: 192 physical cores, 192 logical processors, using up to 32 threads

Academic license 656792 - for non-commercial use only - registered to b.___@student.vu.nl
Optimize a model with 1703600 rows, 1948128 columns and 7223504 nonzeros
Model fingerprint: 0xef774f4b
Coefficient statistics:
  Matrix range     [2e-01, 1e+00]
  Objective range  [6e-05, 2e+01]
  Bounds range     [0e+00, 0e+00]
  RHS range        [1e-02, 1e+03]
Presolve removed 1462602 rows and 1548265 columns
Presolve time: 4.34s
Presolved: 240998 rows, 399890 columns, 1511400 nonzeros

Concurrent LP optimizer: primal simplex, dual simplex, and barrier
Showing barrier log only...

Ordering time: 2.01s

Barrier statistics:
 AA' NZ     : 1.945e+06
 Factor NZ  : 2.160e+07 (roughly 240 MB of memory)
 Factor Ops : 1.926e+10 (less than 1 second per iteration)
 Threads    : 30

                  Objective                Residual
Iter       Primal          Dual         Primal    Dual     Compl     Time
   0  -7.14473386e+05  1.40689454e+09  7.82e+03 5.01e+02  2.27e+05     7s
   1  -3.40451571e+07  1.08800348e+09  1.98e+03 7.55e+01  5.04e+04     7s
   2  -3.56276502e+07  4.74459514e+08  4.78e+02 4.80e+00  9.27e+03     7s
   3  -2.00984057e+07  1.06247296e+08  7.03e+01 3.16e-01  1.46e+03     8s
   4  -5.92569591e+06  4.00218554e+07  1.35e+01 8.45e-02  3.82e+02     8s
   5  -2.21330012e+06  1.77205483e+07  3.70e+00 3.33e-02  1.41e+02     8s
   6  -7.67416163e+05  4.34644084e+06  1.08e+00 6.71e-03  3.38e+01     8s
   7  -2.08551554e+05  7.11813543e+05  2.31e-01 8.41e-04  5.79e+00     8s
   8  -3.65818189e+04  1.18377536e+05  3.83e-02 1.03e-04  9.40e-01     8s
   9   4.68255925e+03  6.22160710e+04  7.27e-03 4.30e-05  3.27e-01     8s
  10   1.12096591e+04  3.94760034e+04  3.93e-03 1.94e-05  1.61e-01     8s
  11   1.72167618e+04  2.79189245e+04  1.35e-03 7.35e-06  6.03e-02     8s
  12   1.89132266e+04  2.49531312e+04  7.47e-04 4.03e-06  3.39e-02     8s
  13   2.02459149e+04  2.35754853e+04  3.30e-04 2.45e-06  1.84e-02     8s
  14   2.10360985e+04  2.21507361e+04  1.04e-04 7.03e-07  6.16e-03     8s
  15   2.12313416e+04  2.17702574e+04  5.87e-05 2.83e-07  3.01e-03     9s
  16   2.13335931e+04  2.16397673e+04  3.70e-05 1.36e-07  1.72e-03     9s
  17   2.14265444e+04  2.15774323e+04  1.78e-05 6.51e-08  8.47e-04     9s
  18   2.14919287e+04  2.15474498e+04  4.75e-06 3.17e-08  3.06e-04     9s
  19   2.15044890e+04  2.15326702e+04  2.42e-06 1.49e-08  1.56e-04     9s
  20   2.15144027e+04  2.15234411e+04  6.91e-07 4.28e-09  4.97e-05     9s
  21   2.15180674e+04  2.15205006e+04  1.34e-07 1.21e-09  1.32e-05     9s
  22   2.15186624e+04  2.15197673e+04  6.35e-08 5.09e-10  6.02e-06     9s
  23   2.15188176e+04  2.15196864e+04  4.58e-08 4.34e-10  4.72e-06     9s
  24   2.15189848e+04  2.15194960e+04  2.68e-08 2.55e-10  2.77e-06     9s
  25   2.15190037e+04  2.15194508e+04  2.47e-08 2.12e-10  2.43e-06     9s
  26   2.15190858e+04  2.15193628e+04  1.56e-08 1.28e-10  1.51e-06     9s
  27   2.15191424e+04  2.15193333e+04  9.38e-09 9.94e-11  1.03e-06    10s
  28   2.15191596e+04  2.15192779e+04  7.50e-09 4.67e-11  6.47e-07    10s
  29   2.15192023e+04  2.15192452e+04  2.83e-09 1.52e-11  2.35e-07    10s
  30   2.15192155e+04  2.15192365e+04  1.41e-09 7.13e-12  1.15e-07    10s
  31   2.15192205e+04  2.15192308e+04  8.55e-10 2.07e-12  5.72e-08    10s
  32   2.15192238e+04  2.15192301e+04  4.02e-09 2.42e-12  3.51e-08    10s
  33   2.15192264e+04  2.15192296e+04  4.96e-09 2.05e-12  1.78e-08    10s
  34   2.15192271e+04  2.15192287e+04  4.86e-07 2.96e-12  9.34e-09    10s
  35   2.15192281e+04  2.15192284e+04  1.13e-07 2.54e-12  1.81e-09    10s
  36   2.15192284e+04  2.15192284e+04  8.37e-09 3.22e-12  1.65e-11    10s

Barrier solved model in 36 iterations and 10.41 seconds (11.04 work units)
Optimal objective 2.15192284e+04

Crossover log...

   36868 DPushes remaining with DInf 1.0686462e-02                10s
       0 DPushes remaining with DInf 1.0125000e-02                11s

    1730 PPushes remaining with PInf 1.3051410e-04                11s
       0 PPushes remaining with PInf 0.0000000e+00                11s

  Push phase complete: Pinf 0.0000000e+00, Dinf 1.0200000e-01     11s

Iteration    Objective       Primal Inf.    Dual Inf.      Time
   32767    2.1519228e+04   0.000000e+00   1.020000e-01     11s

Solved with barrier
Extra simplex iterations after uncrush: 3
   33677    2.1519228e+04   0.000000e+00   0.000000e+00     11s

Use crossover to convert LP symmetric solution to basic solution...
Crossover log...

    3478 DPushes remaining with DInf 0.0000000e+00                12s
       0 DPushes remaining with DInf 0.0000000e+00                12s

    4461 PPushes remaining with PInf 0.0000000e+00                12s
       0 PPushes remaining with PInf 0.0000000e+00                12s

  Push phase complete: Pinf 0.0000000e+00, Dinf 4.0853432e-12     12s

Iteration    Objective       Primal Inf.    Dual Inf.      Time
   49418    2.1519228e+04   0.000000e+00   5.306468e+06     16s
   55131    2.1519709e+04   0.000000e+00   1.079840e+07     21s
   59242    2.1519799e+04   0.000000e+00   6.597132e+06     26s
   62693    2.1519852e+04   0.000000e+00   2.203646e+07     32s
   65406    2.1519874e+04   0.000000e+00   7.887459e+06     36s
   67467    2.1519897e+04   0.000000e+00   6.783121e+06     42s
   68741    2.1519916e+04   0.000000e+00   9.755596e+06     47s
   70015    2.1519937e+04   0.000000e+00   2.275776e+07     52s
   71289    2.1519962e+04   0.000000e+00   8.753374e+05     58s
   72563    2.1519974e+04   0.000000e+00   2.727300e+06     63s
   73200    2.1519981e+04   0.000000e+00   3.083237e+07     65s
   74474    2.1520000e+04   0.000000e+00   7.805115e+06     71s
   75748    2.1520018e+04   0.000000e+00   5.902797e+06     76s
   77022    2.1520035e+04   0.000000e+00   2.161141e+07     83s
   77659    2.1520044e+04   0.000000e+00   5.418474e+06     87s
   78296    2.1520052e+04   0.000000e+00   1.059668e+07     90s
   79570    2.1520064e+04   0.000000e+00   6.496204e+06     97s
   80207    2.1520072e+04   0.000000e+00   1.483747e+07    101s
   81481    2.1520091e+04   0.000000e+00   2.763054e+06    109s
   82118    2.1520099e+04   0.000000e+00   1.048013e+07    112s
   82755    2.1520109e+04   0.000000e+00   6.501320e+06    117s
   83392    2.1520117e+04   0.000000e+00   3.881538e+06    121s
   84666    2.1520132e+04   0.000000e+00   6.067487e+06    127s
   85303    2.1520139e+04   0.000000e+00   1.018090e+07    131s
   85940    2.1520143e+04   0.000000e+00   1.614140e+05    135s
   87214    2.1520158e+04   0.000000e+00   2.513723e+07    142s
   87851    2.1520163e+04   0.000000e+00   3.725761e+06    145s
   89125    2.1520170e+04   0.000000e+00   7.821166e+06    153s
   89762    2.1520173e+04   0.000000e+00   1.506107e+05    157s
   91036    2.1520178e+04   0.000000e+00   1.927960e+05    163s
   91673    2.1520179e+04   0.000000e+00   1.755426e+05    167s
   92310    2.1520181e+04   0.000000e+00   1.442452e+05    171s
   92947    2.1520184e+04   0.000000e+00   1.051771e+05    175s
   94221    2.1520186e+04   0.000000e+00   2.455372e+05    183s
   94858    2.1520186e+04   0.000000e+00   1.345309e+05    188s
   95495    2.1520186e+04   0.000000e+00   7.796706e+04    191s
   96132    2.1520187e+04   0.000000e+00   4.885569e+04    196s
   96769    2.1520187e+04   0.000000e+00   3.747646e+04    200s
   98043    2.1520188e+04   0.000000e+00   2.876987e+04    208s
   98680    2.1520189e+04   0.000000e+00   7.837674e+04    212s
   99317    2.1520189e+04   0.000000e+00   3.480136e+04    215s
  100591    2.1520190e+04   0.000000e+00   4.099813e+05    223s
  101228    2.1520191e+04   0.000000e+00   4.353665e+04    228s
  101865    2.1520191e+04   0.000000e+00   1.995647e+05    232s
  102502    2.1520191e+04   0.000000e+00   2.014048e+05    236s
  103139    2.1520191e+04   0.000000e+00   3.000053e+04    240s
  104413    2.1520192e+04   0.000000e+00   2.663144e+04    249s
  105050    2.1520192e+04   0.000000e+00   1.927895e+05    254s
  105687    2.1520192e+04   0.000000e+00   7.522702e+04    258s
  106324    2.1520193e+04   0.000000e+00   3.488719e+04    261s
  107598    2.1520194e+04   0.000000e+00   1.233199e+04    268s
  108235    2.1520194e+04   0.000000e+00   2.389237e+04    272s
  108872    2.1520194e+04   0.000000e+00   4.800196e+04    276s
  109509    2.1520194e+04   0.000000e+00   8.870126e+04    280s
  110783    2.1520195e+04   0.000000e+00   2.018594e+04    290s
  111420    2.1520195e+04   0.000000e+00   1.426207e+04    294s
  112057    2.1520195e+04   0.000000e+00   2.368848e+04    299s
  112694    2.1520196e+04   0.000000e+00   4.349460e+04    303s
  113331    2.1520196e+04   0.000000e+00   8.569388e+05    307s
  113968    2.1520196e+04   0.000000e+00   2.044293e+04    312s
  114605    2.1520196e+04   0.000000e+00   1.094714e+05    316s
  115242    2.1520196e+04   0.000000e+00   2.528811e+04    320s
  116516    2.1520196e+04   0.000000e+00   1.054188e+04    329s
  117153    2.1520197e+04   0.000000e+00   1.835497e+04    333s
  117790    2.1520197e+04   0.000000e+00   2.167191e+04    337s
  118427    2.1520197e+04   0.000000e+00   2.373032e+04    342s
  119064    2.1520197e+04   0.000000e+00   3.259453e+04    346s
  119701    2.1520197e+04   0.000000e+00   4.373576e+04    352s
  120338    2.1520197e+04   0.000000e+00   5.007597e+04    356s
  120975    2.1520198e+04   0.000000e+00   4.091468e+04    361s
  121612    2.1520198e+04   0.000000e+00   2.717431e+04    366s
  122249    2.1520198e+04   0.000000e+00   1.068188e+04    371s
  122886    2.1520198e+04   0.000000e+00   7.501837e+03    377s
  123523    2.1520198e+04   0.000000e+00   5.311701e+03    382s
  124160    2.1520198e+04   0.000000e+00   1.288659e+04    387s
  124797    2.1520198e+04   0.000000e+00   8.988048e+04    391s
  125434    2.1520199e+04   0.000000e+00   2.502762e+04    396s
  126071    2.1520199e+04   0.000000e+00   2.345628e+04    402s
  126708    2.1520199e+04   0.000000e+00   2.040563e+04    407s
  127345    2.1520199e+04   0.000000e+00   1.242494e+04    412s
  127982    2.1520199e+04   0.000000e+00   9.894239e+03    417s
  128619    2.1520199e+04   0.000000e+00   9.063022e+03    422s
  129256    2.1520199e+04   0.000000e+00   9.927761e+03    427s
  129893    2.1520199e+04   0.000000e+00   5.905073e+03    433s
  130530    2.1520199e+04   0.000000e+00   2.399933e+04    439s
  131167    2.1520199e+04   0.000000e+00   1.210443e+04    444s
  131804    2.1520200e+04   0.000000e+00   1.111602e+04    450s
  132441    2.1520200e+04   0.000000e+00   4.139919e+03    455s
  133078    2.1520200e+04   0.000000e+00   1.743594e+04    461s
  133715    2.1520200e+04   0.000000e+00   9.792379e+03    466s
  134352    2.1520200e+04   0.000000e+00   1.096294e+04    473s
  134989    2.1520200e+04   0.000000e+00   1.549489e+04    479s
  135626    2.1520200e+04   0.000000e+00   8.666063e+03    485s
  136263    2.1520200e+04   0.000000e+00   1.084049e+04    491s
  136900    2.1520200e+04   0.000000e+00   6.089570e+03    496s
  137537    2.1520200e+04   0.000000e+00   7.760491e+03    502s
  138174    2.1520200e+04   0.000000e+00   8.283094e+03    507s
  138811    2.1520200e+04   0.000000e+00   6.080300e+03    513s
  139448    2.1520200e+04   0.000000e+00   5.057012e+04    519s
  140085    2.1520200e+04   0.000000e+00   3.759700e+03    525s
  140722    2.1520201e+04   0.000000e+00   2.914258e+03    531s
  141359    2.1520201e+04   0.000000e+00   6.202997e+03    537s
  141996    2.1520201e+04   0.000000e+00   3.866492e+03    543s
  142633    2.1520201e+04   0.000000e+00   7.535605e+03    548s
  143270    2.1520201e+04   0.000000e+00   3.190988e+03    553s
  143907    2.1520201e+04   0.000000e+00   6.840406e+03    559s
  144544    2.1520201e+04   0.000000e+00   4.476878e+03    564s
  145181    2.1520201e+04   0.000000e+00   1.308637e+04    569s
  145818    2.1520201e+04   0.000000e+00   2.616876e+04    574s
  146455    2.1520201e+04   0.000000e+00   1.547650e+04    579s
  147092    2.1520201e+04   0.000000e+00   5.902413e+04    584s
  147729    2.1520201e+04   0.000000e+00   7.351222e+03    590s
  148366    2.1520201e+04   0.000000e+00   2.739473e+04    596s
  149003    2.1520201e+04   0.000000e+00   1.950852e+03    602s
  149640    2.1520201e+04   0.000000e+00   5.817562e+03    608s
  150277    2.1520201e+04   0.000000e+00   4.652341e+03    614s
  150914    2.1520201e+04   0.000000e+00   6.565856e+03    618s
  151551    2.1520202e+04   0.000000e+00   5.742685e+03    624s
  152188    2.1520202e+04   0.000000e+00   4.632442e+03    629s
  152825    2.1520202e+04   0.000000e+00   5.112819e+03    635s
  153462    2.1520202e+04   0.000000e+00   4.905772e+03    641s
  154099    2.1520202e+04   0.000000e+00   8.623442e+03    648s
  154736    2.1520202e+04   0.000000e+00   2.745694e+03    654s
  155373    2.1520202e+04   0.000000e+00   2.205097e+03    660s
  156010    2.1520202e+04   0.000000e+00   2.129203e+03    666s
  156640    2.1520202e+04   0.000000e+00   2.762795e+03    673s
  157277    2.1520202e+04   0.000000e+00   1.845943e+03    679s
  157914    2.1520202e+04   0.000000e+00   3.658362e+04    686s
  158551    2.1520202e+04   0.000000e+00   1.710297e+03    692s
  159188    2.1520202e+04   0.000000e+00   3.268548e+03    699s
  159825    2.1520202e+04   0.000000e+00   1.756000e+03    706s
  160462    2.1520202e+04   0.000000e+00   1.625962e+03    712s
  161099    2.1520202e+04   0.000000e+00   9.865367e+03    719s
  161729    2.1520202e+04   0.000000e+00   3.449872e+03    726s
  162329    2.1520202e+04   0.000000e+00   2.394980e+03    733s
  162966    2.1520202e+04   0.000000e+00   7.383448e+03    740s
  163603    2.1520202e+04   0.000000e+00   1.400094e+03    746s
  164240    2.1520202e+04   0.000000e+00   1.604196e+03    752s
  164877    2.1520202e+04   0.000000e+00   3.675662e+03    759s
  165514    2.1520202e+04   0.000000e+00   6.821243e+03    766s
  166151    2.1520202e+04   0.000000e+00   2.130946e+03    772s
  166788    2.1520202e+04   0.000000e+00   2.175007e+03    779s
  167425    2.1520202e+04   0.000000e+00   3.153307e+03    785s
  168062    2.1520202e+04   0.000000e+00   2.411492e+03    792s
  168699    2.1520202e+04   0.000000e+00   7.223280e+03    798s
  169336    2.1520202e+04   0.000000e+00   2.197280e+03    805s
  169973    2.1520202e+04   0.000000e+00   3.085713e+03    811s
  170610    2.1520202e+04   0.000000e+00   1.143847e+03    819s
  171247    2.1520202e+04   0.000000e+00   1.794892e+03    825s
  171884    2.1520202e+04   0.000000e+00   1.897773e+03    832s
  172521    2.1520202e+04   0.000000e+00   1.009036e+03    839s
  173158    2.1520202e+04   0.000000e+00   4.689356e+02    846s
  173795    2.1520202e+04   0.000000e+00   1.965102e+03    852s
  174432    2.1520202e+04   0.000000e+00   9.745653e+02    858s
  175069    2.1520202e+04   0.000000e+00   1.063584e+03    865s
  175706    2.1520202e+04   0.000000e+00   1.933835e+02    871s
  176343    2.1520202e+04   0.000000e+00   1.679206e+03    876s
  176980    2.1520203e+04   0.000000e+00   1.124167e+03    882s
  177617    2.1520203e+04   0.000000e+00   3.912693e+03    888s
  178254    2.1520203e+04   0.000000e+00   3.090331e+02    894s
  178891    2.1520203e+04   0.000000e+00   1.107116e+03    901s
  179528    2.1520203e+04   0.000000e+00   2.679605e+02    907s
  180165    2.1520203e+04   0.000000e+00   1.129690e+03    913s
  180802    2.1520203e+04   0.000000e+00   5.828638e+02    919s
  181439    2.1520203e+04   0.000000e+00   4.396262e+02    925s
  182076    2.1520203e+04   0.000000e+00   1.965471e+02    930s
  182713    2.1520203e+04   0.000000e+00   6.368211e+02    936s
  183350    2.1520203e+04   0.000000e+00   2.228140e+02    943s
  183987    2.1520203e+04   0.000000e+00   7.198444e+02    949s
  184624    2.1520203e+04   0.000000e+00   3.834739e+02    954s
  185261    2.1520203e+04   0.000000e+00   6.404735e+02    959s
  185898    2.1520203e+04   0.000000e+00   3.799391e+02    966s
  186535    2.1520203e+04   0.000000e+00   3.282970e+02    972s
  187145    2.1520203e+04   0.000000e+00   2.865927e+02    979s
  187782    2.1520203e+04   0.000000e+00   3.215010e+02    985s
  188419    2.1520203e+04   0.000000e+00   4.906420e+02    991s
  189056    2.1520203e+04   0.000000e+00   3.138056e+02    997s
  189693    2.1520203e+04   0.000000e+00   1.421992e+02   1004s
  190330    2.1520203e+04   0.000000e+00   2.971876e+02   1010s
  190960    2.1520203e+04   0.000000e+00   6.439826e+02   1016s
  191597    2.1520203e+04   0.000000e+00   1.380700e+02   1022s
  192234    2.1520203e+04   0.000000e+00   6.460487e+02   1027s
  192871    2.1520203e+04   0.000000e+00   8.745906e+01   1033s
  193501    2.1520203e+04   0.000000e+00   1.241199e+02   1039s
  194138    2.1520203e+04   0.000000e+00   3.470591e+01   1045s
  194775    2.1520203e+04   0.000000e+00   2.489959e+01   1051s
  195412    2.1520203e+04   0.000000e+00   2.565135e+01   1056s
  196049    2.1520203e+04   0.000000e+00   1.003612e+01   1061s
  196686    2.1520203e+04   0.000000e+00   2.629852e+00   1066s
  197323    2.1520203e+04   0.000000e+00   1.769778e+00   1071s
Extra simplex iterations after uncrush: 156161
  197755    2.1519228e+04   0.000000e+00   0.000000e+00   1074s

Solved in 197755 iterations and 1074.44 seconds (1355.18 work units)
Optimal objective  2.151922844e+04
